NAME : amz2136.141586_141586.tour
COMMENT : Cost = 141586_141586
COMMENT : Found by LKH-AMZ [Keld Helsgaun] Sun May 11 15:07:48 2025
COMMENT : TW viol.: 0 #: 0
TYPE : TOUR
DIMENSION : 123
TOUR_SECTION
4
64
96
12
76
26
104
117
30
81
46
122
74
63
110
25
29
103
119
1
22
123
5
59
60
91
61
85
6
45
99
83
23
24
120
48
67
109
101
105
18
94
35
20
3
108
51
112
114
87
75
7
47
21
86
49
11
73
58
111
10
62
90
38
42
106
66
33
55
16
41
89
115
43
2
88
36
31
50
19
118
8
65
82
72
102
15
100
40
92
79
37
44
84
70
80
32
34
28
57
71
52
17
39
113
98
116
56
53
69
95
13
14
93
78
77
97
68
107
9
54
121
27
-1
EOF
